1 -394 -404 0
-394 -396 -404 0
-16 394 -404 0
-395 -3 233 -5 -403 0
-5 -397 -399 -403 0
394 5 -404 0
-394 -399 -404 0
-399 -400 -403 -404 0
394 399 -400 -401 -402 -404 0
399 -400 -404 -401 -402 0
d 394 399 -400 -401 -402 -404 0
-400 -401 -402 -403 -404 0
-394 399 -402 -404 0
394 400 -403 -404 0
-394 -402 -404 0
d -394 399 -402 -404 0
-402 -403 -404 0
d -400 -401 -402 -403 -404 0
15 -13 16 -404 0
394 399 402 -404 0
-394 -403 -404 0
-403 -404 0
d -402 -403 -404 0
16 402 -404 0
-16 -404 0
d -16 394 -404 0
15 -404 0
d -13 15 16 -404 0
16 -404 0
d 16 402 -404 0
-404 0
16 -402 0
-15 -402 0
-402 0
15 -16 0
-16 0
15 0
13 0
-1 0
-379 0
-327 0
-377 0
-329 0
390 0
388 0
30 0
2 0
393 0
365 0
341 0
313 0
391 0
363 0
343 0
315 0
-26 0
-76 0
-24 0
-74 0
-394 0
-344 0
-41 0
-69 0
-366 0
-54 0
-351 0
-354 0
-276 0
-326 0
-349 0
-316 0
-52 0
-29 0
-79 0
-51 0
-380 0
-14 0
-302 0
-27 0
-352 0
-274 0
-77 0
-324 0
-49 0
-382 0
-304 0
40 0
12 0
90 0
62 0
38 0
10 0
88 0
60 0
5 0
0
